(declare-const X String)
; /filename=[^\n]*\u{2e}wvx/i
(assert (str.in_re X (re.++ (str.to_re "/filename=") (re.* (re.comp (str.to_re "\u{a}"))) (str.to_re ".wvx/i\u{a}"))))
; \u{2F}ezsb\s+hirmvtg\u{2f}ggqh\.kqh\dRemotetoolsbar\u{2E}kuaiso\u{2E}com
(assert (not (str.in_re X (re.++ (str.to_re "/ezsb") (re.+ (re.union (str.to_re " ") (str.to_re "\u{9}") (str.to_re "\u{a}") (str.to_re "\u{c}") (str.to_re "\u{d}"))) (str.to_re "hirmvtg/ggqh.kqh\u{1b}") (re.range "0" "9") (str.to_re "Remotetoolsbar.kuaiso.com\u{a}")))))
; (\w+?@\w+?\u{2E}.+)
(assert (not (str.in_re X (re.++ (str.to_re "\u{a}") (re.+ (re.union (re.range "0" "9") (re.range "A" "Z") (re.range "a" "z") (str.to_re "_"))) (str.to_re "@") (re.+ (re.union (re.range "0" "9") (re.range "A" "Z") (re.range "a" "z") (str.to_re "_"))) (str.to_re ".") (re.+ re.allchar)))))
(check-sat)
